Cr36 Co36 Ni36
1.0
10.578000 0.000000 0.000000
0.000000 10.578000 0.000000
0.000000 0.000000 10.578000
Cr Co Ni
36 36 36
direct
0.000000 0.000000 0.000000 Cr
0.000000 0.333333 0.333333 Cr
0.000000 0.666667 0.666667 Cr
0.333333 0.333333 0.333333 Cr
0.333333 0.666667 0.333333 Cr
0.666667 0.000000 0.333333 Cr
0.666667 0.000000 0.666667 Cr
0.666667 0.333333 0.000000 Cr
0.666667 0.333333 0.333333 Cr
0.666667 0.666667 0.000000 Cr
0.000000 0.166667 0.833333 Cr
0.333333 0.166667 0.166667 Cr
0.333333 0.500000 0.166667 Cr
0.333333 0.833333 0.833333 Cr
0.666667 0.500000 0.833333 Cr
0.666667 0.833333 0.166667 Cr
0.166667 0.000000 0.500000 Cr
0.166667 0.000000 0.833333 Cr
0.166667 0.666667 0.500000 Cr
0.500000 0.333333 0.500000 Cr
0.500000 0.666667 0.500000 Cr
0.500000 0.666667 0.833333 Cr
0.833333 0.000000 0.166667 Cr
0.833333 0.000000 0.833333 Cr
0.833333 0.333333 0.500000 Cr
0.833333 0.333333 0.833333 Cr
0.833333 0.666667 0.166667 Cr
0.833333 0.666667 0.500000 Cr
0.166667 0.166667 0.000000 Cr
0.166667 0.166667 0.333333 Cr
0.166667 0.500000 0.000000 Cr
0.166667 0.500000 0.666667 Cr
0.166667 0.833333 0.333333 Cr
0.500000 0.166667 0.666667 Cr
0.500000 0.833333 0.666667 Cr
0.833333 0.166667 0.000000 Cr
0.000000 0.000000 0.666667 Co
0.000000 0.333333 0.000000 Co
0.000000 0.333333 0.666667 Co
0.000000 0.666667 0.000000 Co
0.333333 0.000000 0.666667 Co
0.333333 0.333333 0.000000 Co
0.333333 0.333333 0.666667 Co
0.333333 0.666667 0.000000 Co
0.333333 0.666667 0.666667 Co
0.666667 0.666667 0.333333 Co
0.666667 0.666667 0.666667 Co
0.000000 0.166667 0.166667 Co
0.000000 0.166667 0.500000 Co
0.000000 0.500000 0.166667 Co
0.000000 0.500000 0.500000 Co
0.000000 0.500000 0.833333 Co
0.000000 0.833333 0.500000 Co
0.333333 0.500000 0.500000 Co
0.666667 0.500000 0.166667 Co
0.666667 0.500000 0.500000 Co
0.666667 0.833333 0.500000 Co
0.666667 0.833333 0.833333 Co
0.166667 0.333333 0.500000 Co
0.500000 0.333333 0.166667 Co
0.500000 0.666667 0.166667 Co
0.166667 0.500000 0.333333 Co
0.166667 0.833333 0.000000 Co
0.166667 0.833333 0.666667 Co
0.500000 0.166667 0.000000 Co
0.500000 0.500000 0.333333 Co
0.500000 0.500000 0.666667 Co
0.500000 0.833333 0.333333 Co
0.833333 0.166667 0.666667 Co
0.833333 0.500000 0.000000 Co
0.833333 0.833333 0.333333 Co
0.833333 0.833333 0.666667 Co
0.000000 0.000000 0.333333 Ni
0.000000 0.666667 0.333333 Ni
0.333333 0.000000 0.000000 Ni
0.333333 0.000000 0.333333 Ni
0.666667 0.000000 0.000000 Ni
0.666667 0.333333 0.666667 Ni
0.000000 0.833333 0.166667 Ni
0.000000 0.833333 0.833333 Ni
0.333333 0.166667 0.500000 Ni
0.333333 0.166667 0.833333 Ni
0.333333 0.500000 0.833333 Ni
0.333333 0.833333 0.166667 Ni
0.333333 0.833333 0.500000 Ni
0.666667 0.166667 0.166667 Ni
0.666667 0.166667 0.500000 Ni
0.666667 0.166667 0.833333 Ni
0.166667 0.000000 0.166667 Ni
0.166667 0.333333 0.166667 Ni
0.166667 0.333333 0.833333 Ni
0.166667 0.666667 0.166667 Ni
0.166667 0.666667 0.833333 Ni
0.500000 0.000000 0.166667 Ni
0.500000 0.000000 0.500000 Ni
0.500000 0.000000 0.833333 Ni
0.500000 0.333333 0.833333 Ni
0.833333 0.000000 0.500000 Ni
0.833333 0.333333 0.166667 Ni
0.833333 0.666667 0.833333 Ni
0.166667 0.166667 0.666667 Ni
0.500000 0.166667 0.333333 Ni
0.500000 0.500000 0.000000 Ni
0.500000 0.833333 0.000000 Ni
0.833333 0.166667 0.333333 Ni
0.833333 0.500000 0.333333 Ni
0.833333 0.500000 0.666667 Ni
0.833333 0.833333 0.000000 Ni
